0000000000000000
0000000000000000
0000000000000000
0011111110000000
0000000011100000
0000000000100000
0000000000110000
0000000001110000
0000000011011000
0000000110001000
0000000100001000
0000001100001000
0000011000001000
0000010000001000
0000000000001000
0000000000000000
